Using license file /home/benedond/gurobi.lic
Using gurobi.env file
Set parameter Threads to value 1
Academic license - for non-commercial use only
Changed value of parameter TimeLimit to 300.0
   Prev: inf  Min: 0.0  Max: inf  Default: inf
Gurobi Optimizer version 9.0.1 build v9.0.1rc0 (linux64)
Optimize a model with 2590 rows, 2485 columns and 9903 nonzeros
Model fingerprint: 0xfa5a03bf
Variable types: 35 continuous, 2450 integer (2450 binary)
Coefficient statistics:
  Matrix range     [1e+00, 4e+02]
  Objective range  [4e+01, 4e+02]
  Bounds range     [1e+00, 1e+00]
  RHS range        [1e+00, 2e+03]
Presolve removed 187 rows and 187 columns
Presolve time: 0.35s
Presolved: 2403 rows, 2298 columns, 9155 nonzeros
Variable types: 35 continuous, 2263 integer (2263 binary)

Root relaxation: objective 6.020000e+03, 508 iterations, 0.02 seconds

    Nodes    |    Current Node    |     Objective Bounds      |     Work
 Expl Unexpl |  Obj  Depth IntInf | Incumbent    BestBd   Gap | It/Node Time

     0     0 6020.00000    0   76          - 6020.00000      -     -    0s
H    0     0                    5653.0000000 6020.00000  6.49%     -    0s
H    0     0                    5776.0000000 6020.00000  4.22%     -    0s
     0     0 6020.00000    0   44 5776.00000 6020.00000  4.22%     -    1s
     0     0 6020.00000    0   46 5776.00000 6020.00000  4.22%     -    3s
H    0     0                    5831.0000000 6020.00000  3.24%     -    3s
     0     0 6020.00000    0   57 5831.00000 6020.00000  3.24%     -    3s
     0     0 6020.00000    0   35 5831.00000 6020.00000  3.24%     -    3s
H    0     0                    5869.0000000 6020.00000  2.57%     -    3s
     0     0 6020.00000    0   38 5869.00000 6020.00000  2.57%     -    3s
     0     0 6020.00000    0   24 5869.00000 6020.00000  2.57%     -    3s
H    0     0                    5877.0000000 6020.00000  2.43%     -    3s
H    0     0                    5944.0000000 6020.00000  1.28%     -    3s
     0     0 6020.00000    0   16 5944.00000 6020.00000  1.28%     -    3s
     0     0 6020.00000    0   24 5944.00000 6020.00000  1.28%     -    3s
     0     0 6020.00000    0   25 5944.00000 6020.00000  1.28%     -    3s
     0     0 6020.00000    0   24 5944.00000 6020.00000  1.28%     -    3s
     0     0 6020.00000    0   19 5944.00000 6020.00000  1.28%     -    3s
     0     0 6020.00000    0   20 5944.00000 6020.00000  1.28%     -    3s
     0     0 6020.00000    0   40 5944.00000 6020.00000  1.28%     -    3s
     0     0 6020.00000    0   30 5944.00000 6020.00000  1.28%     -    3s
     0     0 6020.00000    0   58 5944.00000 6020.00000  1.28%     -    3s
     0     0 6020.00000    0   49 5944.00000 6020.00000  1.28%     -    3s
     0     0 6020.00000    0   46 5944.00000 6020.00000  1.28%     -    3s
     0     0 6020.00000    0   37 5944.00000 6020.00000  1.28%     -    3s
H    0     0                    5990.0000000 6020.00000  0.50%     -    3s
     0     0 6020.00000    0   38 5990.00000 6020.00000  0.50%     -    3s
     0     0 6020.00000    0   33 5990.00000 6020.00000  0.50%     -    3s
     0     0 6020.00000    0   33 5990.00000 6020.00000  0.50%     -    3s
     0     0 6020.00000    0   21 5990.00000 6020.00000  0.50%     -    4s
     0     0 6020.00000    0   22 5990.00000 6020.00000  0.50%     -    4s
     0     0 6020.00000    0   14 5990.00000 6020.00000  0.50%     -    4s
     0     0 6020.00000    0   29 5990.00000 6020.00000  0.50%     -    4s
     0     0 6020.00000    0   36 5990.00000 6020.00000  0.50%     -    4s
     0     0 6020.00000    0   50 5990.00000 6020.00000  0.50%     -    4s
     0     0 6020.00000    0   34 5990.00000 6020.00000  0.50%     -    4s
     0     0 6020.00000    0   38 5990.00000 6020.00000  0.50%     -    4s
     0     0 6020.00000    0   22 5990.00000 6020.00000  0.50%     -    4s
     0     0 6020.00000    0   18 5990.00000 6020.00000  0.50%     -    4s
     0     0 6020.00000    0   15 5990.00000 6020.00000  0.50%     -    4s
     0     0 6020.00000    0   15 5990.00000 6020.00000  0.50%     -    4s
     0     0 6020.00000    0   29 5990.00000 6020.00000  0.50%     -    4s
     0     0 6020.00000    0   34 5990.00000 6020.00000  0.50%     -    4s
     0     0 6020.00000    0   33 5990.00000 6020.00000  0.50%     -    4s
     0     0 6020.00000    0   55 5990.00000 6020.00000  0.50%     -    4s
     0     0 6020.00000    0   57 5990.00000 6020.00000  0.50%     -    4s
     0     0 6020.00000    0   34 5990.00000 6020.00000  0.50%     -    4s
     0     0 6020.00000    0   34 5990.00000 6020.00000  0.50%     -    4s
     0     2 6020.00000    0   33 5990.00000 6020.00000  0.50%     -    4s
   147    28 6020.00000   21   35 5990.00000 6020.00000  0.50%  22.9    5s
  4403   922 infeasible   67      5990.00000 6020.00000  0.50%  24.3   10s
 10203  1703 6020.00000   97   44 5990.00000 6020.00000  0.50%  17.5   15s
 13619  1656 infeasible  107      5990.00000 6020.00000  0.50%  18.3   20s
 16915  1364 6020.00000  106   23 5990.00000 6020.00000  0.50%  16.9   25s
*17829     2              89    6020.0000000 6020.00000  0.00%  17.1   26s

Cutting planes:
  Gomory: 1
  Cover: 1
  Implied bound: 4
  Projected implied bound: 12
  MIR: 9
  Flow cover: 48
  Relax-and-lift: 14

Explored 17830 nodes (308380 simplex iterations) in 26.17 seconds
Thread count was 1 (of 4 available processors)

Solution count 8: 6020 5990 5944 ... 5653

Optimal solution found (tolerance 1.00e-04)
Best objective 6.020000000000e+03, best bound 6.020000000000e+03, gap 0.0000%
